2000,24,44,15
2000,20,44,14
2000,20,40,12
2000,24,28,12
2000,20,40,12
4000,20,52,14
4000,16,44,14
4000,16,40,15
4000,20,44,14
4000,16,44,15
6000,20,52,14
6000,20,44,14
6000,16,36,14
6000,20,48,14
6000,20,36,12
8000,20,52,16
8000,16,44,14
8000,16,40,14
8000,16,32,12
8000,16,52,14
